%Wedding Seat Assignment Data File.
%Evaluation (0 = Utilitarian, 1 = Egalitarian)
Evaluation = 1;

%Number of Tables
nTables = 4;

%Number of Seats per Table:
nSeats = 5;

%Number of Guests:
nGuests = 20;

nGroups = 4;
%Groups that Must be seated together
Groups = [
          {1,3,9},
          {2,4,18},
          {7,13,14},
          {11,16,20}
];

%Pref Weight
PrefWeight = 3;
%Preference Graph: Row i is the person that Guest i would like to sit with.
%There must be as many rows as nGuests.
Pref = [
        {5,2},
        {1,9,4},
        {10},
        {17,16,2},
        {19},
        {3},
        {1},
        {9,3},
        {1,2},
        {3,11,12},
        {1,20,16},
        {10},
        {7,1,14},
        {13,2},
        {1},
        {20,11,2},
        {3,1},
        {20,16},
        {7},
        {18,16}
];

%Troublemakers
Trouble = {1, 2};